\ENCODING=ISO-8859-1
\Problem name: IloCplex

Minimize
 obj1: 999999 x_0_0 + 18.6815416922694 x_0_1 + 20.6155281280883 x_0_2
       + 16.1245154965971 x_0_3 + 18.1107702762748 x_0_4
       + 15.1327459504216 x_0_5 + 19 x_0_6 + 16 x_0_7 + 18.1107702762748 x_0_8
       + 20.0997512422418 x_0_9 + 16.7630546142402 x_0_10
       + 18.6815416922694 x_1_0 + 999999 x_1_1 + 2 x_1_2
       + 3.60555127546399 x_1_3 + 3 x_1_4 + 4.24264068711928 x_1_5
       + 5.09901951359278 x_1_6 + 5.3851648071345 x_1_7 + 7 x_1_8
       + 7.28010988928052 x_1_9 + 10.1980390271856 x_1_10
       + 20.6155281280883 x_2_0 + 2 x_2_1 + 999999 x_2_2 + 5 x_2_3
       + 3.60555127546399 x_2_4 + 5.8309518948453 x_2_5
       + 5.09901951359278 x_2_6 + 6.40312423743285 x_2_7
       + 7.28010988928052 x_2_8 + 7 x_2_9 + 10.770329614269 x_2_10
       + 16.1245154965971 x_3_0 + 3.60555127546399 x_3_1 + 5 x_3_2
       + 999999 x_3_3 + 2 x_3_4 + x_3_5 + 3.60555127546399 x_3_6 + 2 x_3_7
       + 4.47213595499958 x_3_8 + 5.65685424949238 x_3_9 + 7 x_3_10
       + 18.1107702762748 x_4_0 + 3 x_4_1 + 3.60555127546399 x_4_2 + 2 x_4_3
       + 999999 x_4_4 + 3 x_4_5 + 2.23606797749979 x_4_6
       + 2.82842712474619 x_4_7 + 4 x_4_8 + 4.47213595499958 x_4_9
       + 7.28010988928052 x_4_10 + 15.1327459504216 x_5_0
       + 4.24264068711928 x_5_1 + 5.8309518948453 x_5_2 + x_5_3 + 3 x_5_4
       + 999999 x_5_5 + 4.47213595499958 x_5_6 + 2.23606797749979 x_5_7
       + 5 x_5_8 + 6.40312423743285 x_5_9 + 7.07106781186548 x_5_10 + 19 x_6_0
       + 5.09901951359278 x_6_1 + 5.09901951359278 x_6_2
       + 3.60555127546399 x_6_3 + 2.23606797749979 x_6_4
       + 4.47213595499958 x_6_5 + 999999 x_6_6 + 3 x_6_7
       + 2.23606797749979 x_6_8 + 2.23606797749979 x_6_9
       + 5.8309518948453 x_6_10 + 16 x_7_0 + 5.3851648071345 x_7_1
       + 6.40312423743285 x_7_2 + 2 x_7_3 + 2.82842712474619 x_7_4
       + 2.23606797749979 x_7_5 + 3 x_7_6 + 999999 x_7_7
       + 2.82842712474619 x_7_8 + 4.47213595499958 x_7_9 + 5 x_7_10
       + 18.1107702762748 x_8_0 + 7 x_8_1 + 7.28010988928052 x_8_2
       + 4.47213595499958 x_8_3 + 4 x_8_4 + 5 x_8_5 + 2.23606797749979 x_8_6
       + 2.82842712474619 x_8_7 + 999999 x_8_8 + 2 x_8_9
       + 3.60555127546399 x_8_10 + 20.0997512422418 x_9_0
       + 7.28010988928052 x_9_1 + 7 x_9_2 + 5.65685424949238 x_9_3
       + 4.47213595499958 x_9_4 + 6.40312423743285 x_9_5
       + 2.23606797749979 x_9_6 + 4.47213595499958 x_9_7 + 2 x_9_8
       + 999999 x_9_9 + 5 x_9_10 + 16.7630546142402 x_10_0
       + 10.1980390271856 x_10_1 + 10.770329614269 x_10_2 + 7 x_10_3
       + 7.28010988928052 x_10_4 + 7.07106781186548 x_10_5
       + 5.8309518948453 x_10_6 + 5 x_10_7 + 3.60555127546399 x_10_8 + 5 x_10_9
       + 999999 x_10_10
Subject To
 c1:   x_0_1 + x_2_1 + x_3_1 + x_4_1 + x_5_1 + x_6_1 + x_7_1 + x_8_1 + x_9_1
       + x_10_1  = 1
 c2:   x_0_2 + x_1_2 + x_3_2 + x_4_2 + x_5_2 + x_6_2 + x_7_2 + x_8_2 + x_9_2
       + x_10_2  = 1
 c3:   x_0_3 + x_1_3 + x_2_3 + x_4_3 + x_5_3 + x_6_3 + x_7_3 + x_8_3 + x_9_3
       + x_10_3  = 1
 c4:   x_0_4 + x_1_4 + x_2_4 + x_3_4 + x_5_4 + x_6_4 + x_7_4 + x_8_4 + x_9_4
       + x_10_4  = 1
 c5:   x_0_5 + x_1_5 + x_2_5 + x_3_5 + x_4_5 + x_6_5 + x_7_5 + x_8_5 + x_9_5
       + x_10_5  = 1
 c6:   x_0_6 + x_1_6 + x_2_6 + x_3_6 + x_4_6 + x_5_6 + x_7_6 + x_8_6 + x_9_6
       + x_10_6  = 1
 c7:   x_0_7 + x_1_7 + x_2_7 + x_3_7 + x_4_7 + x_5_7 + x_6_7 + x_8_7 + x_9_7
       + x_10_7  = 1
 c8:   x_0_8 + x_1_8 + x_2_8 + x_3_8 + x_4_8 + x_5_8 + x_6_8 + x_7_8 + x_9_8
       + x_10_8  = 1
 c9:   x_0_9 + x_1_9 + x_2_9 + x_3_9 + x_4_9 + x_5_9 + x_6_9 + x_7_9 + x_8_9
       + x_10_9  = 1
 c10:  x_0_10 + x_1_10 + x_2_10 + x_3_10 + x_4_10 + x_5_10 + x_6_10 + x_7_10
       + x_8_10 + x_9_10  = 1
 c11:  x_1_0 + x_1_2 + x_1_3 + x_1_4 + x_1_5 + x_1_6 + x_1_7 + x_1_8 + x_1_9
       + x_1_10  = 1
 c12:  x_2_0 + x_2_1 + x_2_3 + x_2_4 + x_2_5 + x_2_6 + x_2_7 + x_2_8 + x_2_9
       + x_2_10  = 1
 c13:  x_3_0 + x_3_1 + x_3_2 + x_3_4 + x_3_5 + x_3_6 + x_3_7 + x_3_8 + x_3_9
       + x_3_10  = 1
 c14:  x_4_0 + x_4_1 + x_4_2 + x_4_3 + x_4_5 + x_4_6 + x_4_7 + x_4_8 + x_4_9
       + x_4_10  = 1
 c15:  x_5_0 + x_5_1 + x_5_2 + x_5_3 + x_5_4 + x_5_6 + x_5_7 + x_5_8 + x_5_9
       + x_5_10  = 1
 c16:  x_6_0 + x_6_1 + x_6_2 + x_6_3 + x_6_4 + x_6_5 + x_6_7 + x_6_8 + x_6_9
       + x_6_10  = 1
 c17:  x_7_0 + x_7_1 + x_7_2 + x_7_3 + x_7_4 + x_7_5 + x_7_6 + x_7_8 + x_7_9
       + x_7_10  = 1
 c18:  x_8_0 + x_8_1 + x_8_2 + x_8_3 + x_8_4 + x_8_5 + x_8_6 + x_8_7 + x_8_9
       + x_8_10  = 1
 c19:  x_9_0 + x_9_1 + x_9_2 + x_9_3 + x_9_4 + x_9_5 + x_9_6 + x_9_7 + x_9_8
       + x_9_10  = 1
 c20:  x_10_0 + x_10_1 + x_10_2 + x_10_3 + x_10_4 + x_10_5 + x_10_6 + x_10_7
       + x_10_8 + x_10_9  = 1
 c21:  x_0_1 + x_0_2 + x_0_3 + x_0_4 + x_0_5 + x_0_6 + x_0_7 + x_0_8 + x_0_9
       + x_0_10 >= 1
 c22:  x_1_0 + x_2_0 + x_3_0 + x_4_0 + x_5_0 + x_6_0 + x_7_0 + x_8_0 + x_9_0
       + x_10_0 >= 1
 c23:  x_0_1 + x_0_2 + x_0_3 + x_0_4 + x_0_5 + x_0_6 + x_0_7 + x_0_8 + x_0_9
       + x_0_10 - x_1_0 - x_2_0 - x_3_0 - x_4_0 - x_5_0 - x_6_0 - x_7_0 - x_8_0
       - x_9_0 - x_10_0  = 0
 c24:  - 200 x_0_1 + u_1 >= -190
 c25:  - 200 x_0_2 + u_2 >= -170
 c26:  - 200 x_0_3 + u_3 >= -190
 c27:  - 200 x_0_4 + u_4 >= -190
 c28:  - 200 x_0_5 + u_5 >= -190
 c29:  - 200 x_0_6 + u_6 >= -180
 c30:  - 200 x_0_7 + u_7 >= -180
 c31:  - 200 x_0_8 + u_8 >= -180
 c32:  - 200 x_0_9 + u_9 >= -190
 c33:  - 200 x_0_10 + u_10 >= -190
 c34:  - 200 x_1_0 - u_1 + u_0 >= -200
 c35:  - 200 x_1_2 - u_1 + u_2 >= -170
 c36:  - 200 x_1_3 - u_1 + u_3 >= -190
 c37:  - 200 x_1_4 - u_1 + u_4 >= -190
 c38:  - 200 x_1_5 - u_1 + u_5 >= -190
 c39:  - 200 x_1_6 - u_1 + u_6 >= -180
 c40:  - 200 x_1_7 - u_1 + u_7 >= -180
 c41:  - 200 x_1_8 - u_1 + u_8 >= -180
 c42:  - 200 x_1_9 - u_1 + u_9 >= -190
 c43:  - 200 x_1_10 - u_1 + u_10 >= -190
 c44:  - 200 x_2_0 - u_2 + u_0 >= -200
 c45:  - 200 x_2_1 + u_1 - u_2 >= -190
 c46:  - 200 x_2_3 - u_2 + u_3 >= -190
 c47:  - 200 x_2_4 - u_2 + u_4 >= -190
 c48:  - 200 x_2_5 - u_2 + u_5 >= -190
 c49:  - 200 x_2_6 - u_2 + u_6 >= -180
 c50:  - 200 x_2_7 - u_2 + u_7 >= -180
 c51:  - 200 x_2_8 - u_2 + u_8 >= -180
 c52:  - 200 x_2_9 - u_2 + u_9 >= -190
 c53:  - 200 x_2_10 - u_2 + u_10 >= -190
 c54:  - 200 x_3_0 - u_3 + u_0 >= -200
 c55:  - 200 x_3_1 + u_1 - u_3 >= -190
 c56:  - 200 x_3_2 + u_2 - u_3 >= -170
 c57:  - 200 x_3_4 - u_3 + u_4 >= -190
 c58:  - 200 x_3_5 - u_3 + u_5 >= -190
 c59:  - 200 x_3_6 - u_3 + u_6 >= -180
 c60:  - 200 x_3_7 - u_3 + u_7 >= -180
 c61:  - 200 x_3_8 - u_3 + u_8 >= -180
 c62:  - 200 x_3_9 - u_3 + u_9 >= -190
 c63:  - 200 x_3_10 - u_3 + u_10 >= -190
 c64:  - 200 x_4_0 - u_4 + u_0 >= -200
 c65:  - 200 x_4_1 + u_1 - u_4 >= -190
 c66:  - 200 x_4_2 + u_2 - u_4 >= -170
 c67:  - 200 x_4_3 + u_3 - u_4 >= -190
 c68:  - 200 x_4_5 - u_4 + u_5 >= -190
 c69:  - 200 x_4_6 - u_4 + u_6 >= -180
 c70:  - 200 x_4_7 - u_4 + u_7 >= -180
 c71:  - 200 x_4_8 - u_4 + u_8 >= -180
 c72:  - 200 x_4_9 - u_4 + u_9 >= -190
 c73:  - 200 x_4_10 - u_4 + u_10 >= -190
 c74:  - 200 x_5_0 - u_5 + u_0 >= -200
 c75:  - 200 x_5_1 + u_1 - u_5 >= -190
 c76:  - 200 x_5_2 + u_2 - u_5 >= -170
 c77:  - 200 x_5_3 + u_3 - u_5 >= -190
 c78:  - 200 x_5_4 + u_4 - u_5 >= -190
 c79:  - 200 x_5_6 - u_5 + u_6 >= -180
 c80:  - 200 x_5_7 - u_5 + u_7 >= -180
 c81:  - 200 x_5_8 - u_5 + u_8 >= -180
 c82:  - 200 x_5_9 - u_5 + u_9 >= -190
 c83:  - 200 x_5_10 - u_5 + u_10 >= -190
 c84:  - 200 x_6_0 - u_6 + u_0 >= -200
 c85:  - 200 x_6_1 + u_1 - u_6 >= -190
 c86:  - 200 x_6_2 + u_2 - u_6 >= -170
 c87:  - 200 x_6_3 + u_3 - u_6 >= -190
 c88:  - 200 x_6_4 + u_4 - u_6 >= -190
 c89:  - 200 x_6_5 + u_5 - u_6 >= -190
 c90:  - 200 x_6_7 - u_6 + u_7 >= -180
 c91:  - 200 x_6_8 - u_6 + u_8 >= -180
 c92:  - 200 x_6_9 - u_6 + u_9 >= -190
 c93:  - 200 x_6_10 - u_6 + u_10 >= -190
 c94:  - 200 x_7_0 - u_7 + u_0 >= -200
 c95:  - 200 x_7_1 + u_1 - u_7 >= -190
 c96:  - 200 x_7_2 + u_2 - u_7 >= -170
 c97:  - 200 x_7_3 + u_3 - u_7 >= -190
 c98:  - 200 x_7_4 + u_4 - u_7 >= -190
 c99:  - 200 x_7_5 + u_5 - u_7 >= -190
 c100: - 200 x_7_6 + u_6 - u_7 >= -180
 c101: - 200 x_7_8 - u_7 + u_8 >= -180
 c102: - 200 x_7_9 - u_7 + u_9 >= -190
 c103: - 200 x_7_10 - u_7 + u_10 >= -190
 c104: - 200 x_8_0 - u_8 + u_0 >= -200
 c105: - 200 x_8_1 + u_1 - u_8 >= -190
 c106: - 200 x_8_2 + u_2 - u_8 >= -170
 c107: - 200 x_8_3 + u_3 - u_8 >= -190
 c108: - 200 x_8_4 + u_4 - u_8 >= -190
 c109: - 200 x_8_5 + u_5 - u_8 >= -190
 c110: - 200 x_8_6 + u_6 - u_8 >= -180
 c111: - 200 x_8_7 + u_7 - u_8 >= -180
 c112: - 200 x_8_9 - u_8 + u_9 >= -190
 c113: - 200 x_8_10 - u_8 + u_10 >= -190
 c114: - 200 x_9_0 - u_9 + u_0 >= -200
 c115: - 200 x_9_1 + u_1 - u_9 >= -190
 c116: - 200 x_9_2 + u_2 - u_9 >= -170
 c117: - 200 x_9_3 + u_3 - u_9 >= -190
 c118: - 200 x_9_4 + u_4 - u_9 >= -190
 c119: - 200 x_9_5 + u_5 - u_9 >= -190
 c120: - 200 x_9_6 + u_6 - u_9 >= -180
 c121: - 200 x_9_7 + u_7 - u_9 >= -180
 c122: - 200 x_9_8 + u_8 - u_9 >= -180
 c123: - 200 x_9_10 - u_9 + u_10 >= -190
 c124: - 200 x_10_0 - u_10 + u_0 >= -200
 c125: - 200 x_10_1 + u_1 - u_10 >= -190
 c126: - 200 x_10_2 + u_2 - u_10 >= -170
 c127: - 200 x_10_3 + u_3 - u_10 >= -190
 c128: - 200 x_10_4 + u_4 - u_10 >= -190
 c129: - 200 x_10_5 + u_5 - u_10 >= -190
 c130: - 200 x_10_6 + u_6 - u_10 >= -180
 c131: - 200 x_10_7 + u_7 - u_10 >= -180
 c132: - 200 x_10_8 + u_8 - u_10 >= -180
 c133: - 200 x_10_9 + u_9 - u_10 >= -190
 c134: u_0 >= 0
 c135: u_0 <= 200
 c136: u_1 >= 10
 c137: u_1 <= 200
 c138: u_2 >= 30
 c139: u_2 <= 200
 c140: u_3 >= 10
 c141: u_3 <= 200
 c142: u_4 >= 10
 c143: u_4 <= 200
 c144: u_5 >= 10
 c145: u_5 <= 200
 c146: u_6 >= 20
 c147: u_6 <= 200
 c148: u_7 >= 20
 c149: u_7 <= 200
 c150: u_8 >= 20
 c151: u_8 <= 200
 c152: u_9 >= 10
 c153: u_9 <= 200
 c154: u_10 >= 10
 c155: u_10 <= 200
Bounds
      x_0_0 = 0
      x_0_1 = 0
      x_0_2 = 0
      x_0_3 = 0
      x_0_4 = 0
      x_0_5 = 0
      x_0_6 = 0
      x_0_7 = 0
      x_0_8 = 0
      x_0_9 = 0
      x_0_10 = 1
 0 <= x_1_0 <= 1
      x_1_1 = 0
 0 <= x_1_2 <= 1
 0 <= x_1_3 <= 1
      x_1_4 = 0
 0 <= x_1_5 <= 1
      x_1_6 = 0
 0 <= x_1_7 <= 1
      x_1_8 = 0
      x_1_9 = 0
      x_1_10 = 0
 0 <= x_2_0 <= 1
 0 <= x_2_1 <= 1
      x_2_2 = 0
 0 <= x_2_3 <= 1
      x_2_4 = 0
 0 <= x_2_5 <= 1
      x_2_6 = 0
 0 <= x_2_7 <= 1
      x_2_8 = 0
      x_2_9 = 0
      x_2_10 = 0
 0 <= x_3_0 <= 1
 0 <= x_3_1 <= 1
 0 <= x_3_2 <= 1
      x_3_3 = 0
      x_3_4 = 0
 0 <= x_3_5 <= 1
      x_3_6 = 0
 0 <= x_3_7 <= 1
      x_3_8 = 0
      x_3_9 = 0
      x_3_10 = 0
 0 <= x_4_0 <= 1
 0 <= x_4_1 <= 1
 0 <= x_4_2 <= 1
 0 <= x_4_3 <= 1
      x_4_4 = 0
 0 <= x_4_5 <= 1
      x_4_6 = 0
 0 <= x_4_7 <= 1
      x_4_8 = 0
      x_4_9 = 0
      x_4_10 = 0
 0 <= x_5_0 <= 1
 0 <= x_5_1 <= 1
 0 <= x_5_2 <= 1
 0 <= x_5_3 <= 1
      x_5_4 = 0
      x_5_5 = 0
      x_5_6 = 0
 0 <= x_5_7 <= 1
      x_5_8 = 0
      x_5_9 = 0
      x_5_10 = 0
      x_6_0 = 0
      x_6_1 = 0
      x_6_2 = 0
      x_6_3 = 0
      x_6_4 = 1
      x_6_5 = 0
      x_6_6 = 0
      x_6_7 = 0
      x_6_8 = 0
      x_6_9 = 0
      x_6_10 = 0
 0 <= x_7_0 <= 1
 0 <= x_7_1 <= 1
 0 <= x_7_2 <= 1
 0 <= x_7_3 <= 1
      x_7_4 = 0
 0 <= x_7_5 <= 1
      x_7_6 = 0
      x_7_7 = 0
      x_7_8 = 0
      x_7_9 = 0
      x_7_10 = 0
      x_8_0 = 0
      x_8_1 = 0
      x_8_2 = 0
      x_8_3 = 0
      x_8_4 = 0
      x_8_5 = 0
      x_8_6 = 0
      x_8_7 = 0
      x_8_8 = 0
      x_8_9 = 1
      x_8_10 = 0
      x_9_0 = 0
      x_9_1 = 0
      x_9_2 = 0
      x_9_3 = 0
      x_9_4 = 0
      x_9_5 = 0
      x_9_6 = 1
      x_9_7 = 0
      x_9_8 = 0
      x_9_9 = 0
      x_9_10 = 0
      x_10_0 = 0
      x_10_1 = 0
      x_10_2 = 0
      x_10_3 = 0
      x_10_4 = 0
      x_10_5 = 0
      x_10_6 = 0
      x_10_7 = 0
      x_10_8 = 1
      x_10_9 = 0
      x_10_10 = 0
Binaries
 x_0_0  x_0_1  x_0_2  x_0_3  x_0_4  x_0_5  x_0_6  x_0_7  x_0_8  x_0_9  x_0_10 
 x_4_0  x_4_1  x_4_2  x_4_3  x_4_4  x_4_5  x_4_6  x_4_7  x_4_8  x_4_9  x_4_10 
 x_6_0  x_6_1  x_6_2  x_6_3  x_6_4  x_6_5  x_6_6  x_6_7  x_6_8  x_6_9  x_6_10 
 x_8_0  x_8_1  x_8_2  x_8_3  x_8_4  x_8_5  x_8_6  x_8_7  x_8_8  x_8_9  x_8_10 
 x_9_0  x_9_1  x_9_2  x_9_3  x_9_4  x_9_5  x_9_6  x_9_7  x_9_8  x_9_9  x_9_10 
 x_10_0  x_10_1  x_10_2  x_10_3  x_10_4  x_10_5  x_10_6  x_10_7  x_10_8 
 x_10_9  x_10_10 
End
